Route #1: 4 45 23 12 50 49 15 19 46 17 22
Route #2: 40 20 30 18 1 42 36
Route #3: 43 7 33 35
Route #4: 41 25 6 47 37 44
Route #5: 3 28 11 21 14 39 24 31 48 2
Route #6: 16 9 34 32 13 26 38
Route #7: 29 51 5 8 27 10
cost 784.6574096679688